nNurses = 81;
nHours = 28;
minHours = 8;
maxHours = 19;
maxConsec = 10;
maxPresence = 25;
demand = [25, 29, 32, 28, 28, 28, 26, 30, 32, 35, 35, 30, 25, 28, 23, 21, 21, 18, 23, 20, 20, 16, 13, 15, 20, 20, 23, 23];
